num_wann        =  24
num_bands       =  96
num_iter        =  0
exclude_bands:1-48

#kmesh_tol=0.00001
search_shells = 20

dis_win_min=-5.7351
dis_win_max=10.0
dis_froz_min=-5.7351
dis_froz_max=1.2649

begin projections
Bi:p
end projections

guiding_centres = true

#wannier_plot = true
#wannier_plot_list = 1-9
#wannier_plot_supercell = 3 3 1

write_xyz = true
write_tb = true
write_rmn = true
write_hr = true
write_u_matrices = true

#restart = plot
#bands_plot = true
bands_num_points = 50
bands_plot_format = gnuplot
begin kpoint_path
G 0.00000  0.00000 0.0000 Y 0.50000  0.00000 0.0000
Y 0.50000  0.00000 0.0000 M 0.33333  0.33333 0.0000
M 0.33333  0.33333 0.0000 G 0.00000  0.00000 0.0000
end kpoint_path

spinors = .true.

begin unit_cell_cart
     4.6076559     0.0000000     0.0000000
     0.0000000     4.4662385     0.0000000
     0.0000000     0.0000000    20.0000000
end unit_cell_cart

begin atoms_cart
Bi       0.2566132     2.2331193    11.2100396
Bi       4.6068137     2.2331193     8.2394236
Bi       2.5604412     0.0000000     8.2394236
Bi       2.3029858     0.0000000    11.2100396
end atoms_cart

mp_grid =    17    17     1

begin kpoints
      0.000000000000      0.000000000000      0.000000000000
      0.058823529412      0.000000000000      0.000000000000
      0.117647058824      0.000000000000      0.000000000000
      0.176470588235      0.000000000000      0.000000000000
      0.235294117647      0.000000000000      0.000000000000
      0.294117647059      0.000000000000      0.000000000000
      0.352941176471      0.000000000000      0.000000000000
      0.411764705882      0.000000000000      0.000000000000
      0.470588235294      0.000000000000      0.000000000000
      0.000000000000      0.058823529412      0.000000000000
      0.058823529412      0.058823529412      0.000000000000
      0.117647058824      0.058823529412      0.000000000000
      0.176470588235      0.058823529412      0.000000000000
      0.235294117647      0.058823529412      0.000000000000
      0.294117647059      0.058823529412      0.000000000000
      0.352941176471      0.058823529412      0.000000000000
      0.411764705882      0.058823529412      0.000000000000
      0.470588235294      0.058823529412      0.000000000000
     -0.470588235294      0.058823529412      0.000000000000
     -0.411764705882      0.058823529412      0.000000000000
     -0.352941176471      0.058823529412      0.000000000000
     -0.294117647059      0.058823529412      0.000000000000
     -0.235294117647      0.058823529412      0.000000000000
     -0.176470588235      0.058823529412      0.000000000000
     -0.117647058824      0.058823529412      0.000000000000
     -0.058823529412      0.058823529412      0.000000000000
      0.000000000000      0.117647058824      0.000000000000
      0.058823529412      0.117647058824      0.000000000000
      0.117647058824      0.117647058824      0.000000000000
      0.176470588235      0.117647058824      0.000000000000
      0.235294117647      0.117647058824      0.000000000000
      0.294117647059      0.117647058824      0.000000000000
      0.352941176471      0.117647058824      0.000000000000
      0.411764705882      0.117647058824      0.000000000000
      0.470588235294      0.117647058824      0.000000000000
     -0.470588235294      0.117647058824      0.000000000000
     -0.411764705882      0.117647058824      0.000000000000
     -0.352941176471      0.117647058824      0.000000000000
     -0.294117647059      0.117647058824      0.000000000000
     -0.235294117647      0.117647058824      0.000000000000
     -0.176470588235      0.117647058824      0.000000000000
     -0.117647058824      0.117647058824      0.000000000000
     -0.058823529412      0.117647058824      0.000000000000
      0.000000000000      0.176470588235      0.000000000000
      0.058823529412      0.176470588235      0.000000000000
      0.117647058824      0.176470588235      0.000000000000
      0.176470588235      0.176470588235      0.000000000000
      0.235294117647      0.176470588235      0.000000000000
      0.294117647059      0.176470588235      0.000000000000
      0.352941176471      0.176470588235      0.000000000000
      0.411764705882      0.176470588235      0.000000000000
      0.470588235294      0.176470588235      0.000000000000
     -0.470588235294      0.176470588235      0.000000000000
     -0.411764705882      0.176470588235      0.000000000000
     -0.352941176471      0.176470588235      0.000000000000
     -0.294117647059      0.176470588235      0.000000000000
     -0.235294117647      0.176470588235      0.000000000000
     -0.176470588235      0.176470588235      0.000000000000
     -0.117647058824      0.176470588235      0.000000000000
     -0.058823529412      0.176470588235      0.000000000000
      0.000000000000      0.235294117647      0.000000000000
      0.058823529412      0.235294117647      0.000000000000
      0.117647058824      0.235294117647      0.000000000000
      0.176470588235      0.235294117647      0.000000000000
      0.235294117647      0.235294117647      0.000000000000
      0.294117647059      0.235294117647      0.000000000000
      0.352941176471      0.235294117647      0.000000000000
      0.411764705882      0.235294117647      0.000000000000
      0.470588235294      0.235294117647      0.000000000000
     -0.470588235294      0.235294117647      0.000000000000
     -0.411764705882      0.235294117647      0.000000000000
     -0.352941176471      0.235294117647      0.000000000000
     -0.294117647059      0.235294117647      0.000000000000
     -0.235294117647      0.235294117647      0.000000000000
     -0.176470588235      0.235294117647      0.000000000000
     -0.117647058824      0.235294117647      0.000000000000
     -0.058823529412      0.235294117647      0.000000000000
      0.000000000000      0.294117647059      0.000000000000
      0.058823529412      0.294117647059      0.000000000000
      0.117647058824      0.294117647059      0.000000000000
      0.176470588235      0.294117647059      0.000000000000
      0.235294117647      0.294117647059      0.000000000000
      0.294117647059      0.294117647059      0.000000000000
      0.352941176471      0.294117647059      0.000000000000
      0.411764705882      0.294117647059      0.000000000000
      0.470588235294      0.294117647059      0.000000000000
     -0.470588235294      0.294117647059      0.000000000000
     -0.411764705882      0.294117647059      0.000000000000
     -0.352941176471      0.294117647059      0.000000000000
     -0.294117647059      0.294117647059      0.000000000000
     -0.235294117647      0.294117647059      0.000000000000
     -0.176470588235      0.294117647059      0.000000000000
     -0.117647058824      0.294117647059      0.000000000000
     -0.058823529412      0.294117647059      0.000000000000
      0.000000000000      0.352941176471      0.000000000000
      0.058823529412      0.352941176471      0.000000000000
      0.117647058824      0.352941176471      0.000000000000
      0.176470588235      0.352941176471      0.000000000000
      0.235294117647      0.352941176471      0.000000000000
      0.294117647059      0.352941176471      0.000000000000
      0.352941176471      0.352941176471      0.000000000000
      0.411764705882      0.352941176471      0.000000000000
      0.470588235294      0.352941176471      0.000000000000
     -0.470588235294      0.352941176471      0.000000000000
     -0.411764705882      0.352941176471      0.000000000000
     -0.352941176471      0.352941176471      0.000000000000
     -0.294117647059      0.352941176471      0.000000000000
     -0.235294117647      0.352941176471      0.000000000000
     -0.176470588235      0.352941176471      0.000000000000
     -0.117647058824      0.352941176471      0.000000000000
     -0.058823529412      0.352941176471      0.000000000000
      0.000000000000      0.411764705882      0.000000000000
      0.058823529412      0.411764705882      0.000000000000
      0.117647058824      0.411764705882      0.000000000000
      0.176470588235      0.411764705882      0.000000000000
      0.235294117647      0.411764705882      0.000000000000
      0.294117647059      0.411764705882      0.000000000000
      0.352941176471      0.411764705882      0.000000000000
      0.411764705882      0.411764705882      0.000000000000
      0.470588235294      0.411764705882      0.000000000000
     -0.470588235294      0.411764705882      0.000000000000
     -0.411764705882      0.411764705882      0.000000000000
     -0.352941176471      0.411764705882      0.000000000000
     -0.294117647059      0.411764705882      0.000000000000
     -0.235294117647      0.411764705882      0.000000000000
     -0.176470588235      0.411764705882      0.000000000000
     -0.117647058824      0.411764705882      0.000000000000
     -0.058823529412      0.411764705882      0.000000000000
      0.000000000000      0.470588235294      0.000000000000
      0.058823529412      0.470588235294      0.000000000000
      0.117647058824      0.470588235294      0.000000000000
      0.176470588235      0.470588235294      0.000000000000
      0.235294117647      0.470588235294      0.000000000000
      0.294117647059      0.470588235294      0.000000000000
      0.352941176471      0.470588235294      0.000000000000
      0.411764705882      0.470588235294      0.000000000000
      0.470588235294      0.470588235294      0.000000000000
     -0.470588235294      0.470588235294      0.000000000000
     -0.411764705882      0.470588235294      0.000000000000
     -0.352941176471      0.470588235294      0.000000000000
     -0.294117647059      0.470588235294      0.000000000000
     -0.235294117647      0.470588235294      0.000000000000
     -0.176470588235      0.470588235294      0.000000000000
     -0.117647058824      0.470588235294      0.000000000000
     -0.058823529412      0.470588235294      0.000000000000
     -0.058823529412      0.000000000000      0.000000000000
     -0.117647058824      0.000000000000      0.000000000000
     -0.176470588235      0.000000000000      0.000000000000
     -0.235294117647      0.000000000000      0.000000000000
     -0.294117647059      0.000000000000      0.000000000000
     -0.352941176471      0.000000000000      0.000000000000
     -0.411764705882      0.000000000000      0.000000000000
     -0.470588235294      0.000000000000      0.000000000000
      0.000000000000     -0.058823529412      0.000000000000
     -0.058823529412     -0.058823529412      0.000000000000
     -0.117647058824     -0.058823529412      0.000000000000
     -0.176470588235     -0.058823529412      0.000000000000
     -0.235294117647     -0.058823529412      0.000000000000
     -0.294117647059     -0.058823529412      0.000000000000
     -0.352941176471     -0.058823529412      0.000000000000
     -0.411764705882     -0.058823529412      0.000000000000
     -0.470588235294     -0.058823529412      0.000000000000
      0.470588235294     -0.058823529412      0.000000000000
      0.411764705882     -0.058823529412      0.000000000000
      0.352941176471     -0.058823529412      0.000000000000
      0.294117647059     -0.058823529412      0.000000000000
      0.235294117647     -0.058823529412      0.000000000000
      0.176470588235     -0.058823529412      0.000000000000
      0.117647058824     -0.058823529412      0.000000000000
      0.058823529412     -0.058823529412      0.000000000000
      0.000000000000     -0.117647058824      0.000000000000
     -0.058823529412     -0.117647058824      0.000000000000
     -0.117647058824     -0.117647058824      0.000000000000
     -0.176470588235     -0.117647058824      0.000000000000
     -0.235294117647     -0.117647058824      0.000000000000
     -0.294117647059     -0.117647058824      0.000000000000
     -0.352941176471     -0.117647058824      0.000000000000
     -0.411764705882     -0.117647058824      0.000000000000
     -0.470588235294     -0.117647058824      0.000000000000
      0.470588235294     -0.117647058824      0.000000000000
      0.411764705882     -0.117647058824      0.000000000000
      0.352941176471     -0.117647058824      0.000000000000
      0.294117647059     -0.117647058824      0.000000000000
      0.235294117647     -0.117647058824      0.000000000000
      0.176470588235     -0.117647058824      0.000000000000
      0.117647058824     -0.117647058824      0.000000000000
      0.058823529412     -0.117647058824      0.000000000000
      0.000000000000     -0.176470588235      0.000000000000
     -0.058823529412     -0.176470588235      0.000000000000
     -0.117647058824     -0.176470588235      0.000000000000
     -0.176470588235     -0.176470588235      0.000000000000
     -0.235294117647     -0.176470588235      0.000000000000
     -0.294117647059     -0.176470588235      0.000000000000
     -0.352941176471     -0.176470588235      0.000000000000
     -0.411764705882     -0.176470588235      0.000000000000
     -0.470588235294     -0.176470588235      0.000000000000
      0.470588235294     -0.176470588235      0.000000000000
      0.411764705882     -0.176470588235      0.000000000000
      0.352941176471     -0.176470588235      0.000000000000
      0.294117647059     -0.176470588235      0.000000000000
      0.235294117647     -0.176470588235      0.000000000000
      0.176470588235     -0.176470588235      0.000000000000
      0.117647058824     -0.176470588235      0.000000000000
      0.058823529412     -0.176470588235      0.000000000000
      0.000000000000     -0.235294117647      0.000000000000
     -0.058823529412     -0.235294117647      0.000000000000
     -0.117647058824     -0.235294117647      0.000000000000
     -0.176470588235     -0.235294117647      0.000000000000
     -0.235294117647     -0.235294117647      0.000000000000
     -0.294117647059     -0.235294117647      0.000000000000
     -0.352941176471     -0.235294117647      0.000000000000
     -0.411764705882     -0.235294117647      0.000000000000
     -0.470588235294     -0.235294117647      0.000000000000
      0.470588235294     -0.235294117647      0.000000000000
      0.411764705882     -0.235294117647      0.000000000000
      0.352941176471     -0.235294117647      0.000000000000
      0.294117647059     -0.235294117647      0.000000000000
      0.235294117647     -0.235294117647      0.000000000000
      0.176470588235     -0.235294117647      0.000000000000
      0.117647058824     -0.235294117647      0.000000000000
      0.058823529412     -0.235294117647      0.000000000000
      0.000000000000     -0.294117647059      0.000000000000
     -0.058823529412     -0.294117647059      0.000000000000
     -0.117647058824     -0.294117647059      0.000000000000
     -0.176470588235     -0.294117647059      0.000000000000
     -0.235294117647     -0.294117647059      0.000000000000
     -0.294117647059     -0.294117647059      0.000000000000
     -0.352941176471     -0.294117647059      0.000000000000
     -0.411764705882     -0.294117647059      0.000000000000
     -0.470588235294     -0.294117647059      0.000000000000
      0.470588235294     -0.294117647059      0.000000000000
      0.411764705882     -0.294117647059      0.000000000000
      0.352941176471     -0.294117647059      0.000000000000
      0.294117647059     -0.294117647059      0.000000000000
      0.235294117647     -0.294117647059      0.000000000000
      0.176470588235     -0.294117647059      0.000000000000
      0.117647058824     -0.294117647059      0.000000000000
      0.058823529412     -0.294117647059      0.000000000000
      0.000000000000     -0.352941176471      0.000000000000
     -0.058823529412     -0.352941176471      0.000000000000
     -0.117647058824     -0.352941176471      0.000000000000
     -0.176470588235     -0.352941176471      0.000000000000
     -0.235294117647     -0.352941176471      0.000000000000
     -0.294117647059     -0.352941176471      0.000000000000
     -0.352941176471     -0.352941176471      0.000000000000
     -0.411764705882     -0.352941176471      0.000000000000
     -0.470588235294     -0.352941176471      0.000000000000
      0.470588235294     -0.352941176471      0.000000000000
      0.411764705882     -0.352941176471      0.000000000000
      0.352941176471     -0.352941176471      0.000000000000
      0.294117647059     -0.352941176471      0.000000000000
      0.235294117647     -0.352941176471      0.000000000000
      0.176470588235     -0.352941176471      0.000000000000
      0.117647058824     -0.352941176471      0.000000000000
      0.058823529412     -0.352941176471      0.000000000000
      0.000000000000     -0.411764705882      0.000000000000
     -0.058823529412     -0.411764705882      0.000000000000
     -0.117647058824     -0.411764705882      0.000000000000
     -0.176470588235     -0.411764705882      0.000000000000
     -0.235294117647     -0.411764705882      0.000000000000
     -0.294117647059     -0.411764705882      0.000000000000
     -0.352941176471     -0.411764705882      0.000000000000
     -0.411764705882     -0.411764705882      0.000000000000
     -0.470588235294     -0.411764705882      0.000000000000
      0.470588235294     -0.411764705882      0.000000000000
      0.411764705882     -0.411764705882      0.000000000000
      0.352941176471     -0.411764705882      0.000000000000
      0.294117647059     -0.411764705882      0.000000000000
      0.235294117647     -0.411764705882      0.000000000000
      0.176470588235     -0.411764705882      0.000000000000
      0.117647058824     -0.411764705882      0.000000000000
      0.058823529412     -0.411764705882      0.000000000000
      0.000000000000     -0.470588235294      0.000000000000
     -0.058823529412     -0.470588235294      0.000000000000
     -0.117647058824     -0.470588235294      0.000000000000
     -0.176470588235     -0.470588235294      0.000000000000
     -0.235294117647     -0.470588235294      0.000000000000
     -0.294117647059     -0.470588235294      0.000000000000
     -0.352941176471     -0.470588235294      0.000000000000
     -0.411764705882     -0.470588235294      0.000000000000
     -0.470588235294     -0.470588235294      0.000000000000
      0.470588235294     -0.470588235294      0.000000000000
      0.411764705882     -0.470588235294      0.000000000000
      0.352941176471     -0.470588235294      0.000000000000
      0.294117647059     -0.470588235294      0.000000000000
      0.235294117647     -0.470588235294      0.000000000000
      0.176470588235     -0.470588235294      0.000000000000
      0.117647058824     -0.470588235294      0.000000000000
      0.058823529412     -0.470588235294      0.000000000000
end kpoints
