 num_wann =   9  ! set to NBANDS by VASP
 num_bands =  9 

exclude_bands = 1-3,13-24

#dis_win_max       = 4.6d0
#dis_froz_max      =  -1.4d0
#dis_num_iter      =  1000
#dis_mix_ratio     = 1.d0

Begin Projections
Te: p
End Projections

num_iter=500

hr_plot=T
write_xyz = true
translate_home_cell = false

guiding_centres=true

#spinors = .true.

#fermisurface
fermi_energy = -2.6959 
#fermi_surface_plot = true

# Bandstructure plot
#restart         =  plot
#bands_plot      =  true
begin kpoint_path
G 0   0  0        Y 0 0.5 0
Y 0   0.5    0    M 0.5  0.5 0
M 0.5 0.5  0      X  0.5 0  0
X 0.5 0 0        G 0  0  0
G 0  0  0       M  0.5 0.5 0
end kpoint_path
bands_num_points 40
bands_plot_format gnuplot xmgrace


begin unit_cell_cart
     4.1700001     0.0000000     0.0000000
     0.0000000     5.4899998     0.0000000
     0.0000000     0.0000000    23.0000000
end unit_cell_cart

begin atoms_cart
Te       4.1700001     5.4881927    11.5001325
Te       2.0850000     3.5980251    12.5843761
Te       2.0850000     1.8882919    10.4154914
end atoms_cart

mp_grid =    16    10     1

begin kpoints
      0.000000000000      0.000000000000      0.000000000000
      0.062500000000      0.000000000000      0.000000000000
      0.125000000000      0.000000000000      0.000000000000
      0.187500000000      0.000000000000      0.000000000000
      0.250000000000      0.000000000000      0.000000000000
      0.312500000000      0.000000000000      0.000000000000
      0.375000000000      0.000000000000      0.000000000000
      0.437500000000      0.000000000000      0.000000000000
      0.500000000000      0.000000000000      0.000000000000
      0.000000000000      0.100000000000      0.000000000000
      0.062500000000      0.100000000000      0.000000000000
      0.125000000000      0.100000000000      0.000000000000
      0.187500000000      0.100000000000      0.000000000000
      0.250000000000      0.100000000000      0.000000000000
      0.312500000000      0.100000000000      0.000000000000
      0.375000000000      0.100000000000      0.000000000000
      0.437500000000      0.100000000000      0.000000000000
      0.500000000000      0.100000000000      0.000000000000
     -0.437500000000      0.100000000000      0.000000000000
     -0.375000000000      0.100000000000      0.000000000000
     -0.312500000000      0.100000000000      0.000000000000
     -0.250000000000      0.100000000000      0.000000000000
     -0.187500000000      0.100000000000      0.000000000000
     -0.125000000000      0.100000000000      0.000000000000
     -0.062500000000      0.100000000000      0.000000000000
      0.000000000000      0.200000000000      0.000000000000
      0.062500000000      0.200000000000      0.000000000000
      0.125000000000      0.200000000000      0.000000000000
      0.187500000000      0.200000000000      0.000000000000
      0.250000000000      0.200000000000      0.000000000000
      0.312500000000      0.200000000000      0.000000000000
      0.375000000000      0.200000000000      0.000000000000
      0.437500000000      0.200000000000      0.000000000000
      0.500000000000      0.200000000000      0.000000000000
     -0.437500000000      0.200000000000      0.000000000000
     -0.375000000000      0.200000000000      0.000000000000
     -0.312500000000      0.200000000000      0.000000000000
     -0.250000000000      0.200000000000      0.000000000000
     -0.187500000000      0.200000000000      0.000000000000
     -0.125000000000      0.200000000000      0.000000000000
     -0.062500000000      0.200000000000      0.000000000000
      0.000000000000      0.300000000000      0.000000000000
      0.062500000000      0.300000000000      0.000000000000
      0.125000000000      0.300000000000      0.000000000000
      0.187500000000      0.300000000000      0.000000000000
      0.250000000000      0.300000000000      0.000000000000
      0.312500000000      0.300000000000      0.000000000000
      0.375000000000      0.300000000000      0.000000000000
      0.437500000000      0.300000000000      0.000000000000
      0.500000000000      0.300000000000      0.000000000000
     -0.437500000000      0.300000000000      0.000000000000
     -0.375000000000      0.300000000000      0.000000000000
     -0.312500000000      0.300000000000      0.000000000000
     -0.250000000000      0.300000000000      0.000000000000
     -0.187500000000      0.300000000000      0.000000000000
     -0.125000000000      0.300000000000      0.000000000000
     -0.062500000000      0.300000000000      0.000000000000
      0.000000000000      0.400000000000      0.000000000000
      0.062500000000      0.400000000000      0.000000000000
      0.125000000000      0.400000000000      0.000000000000
      0.187500000000      0.400000000000      0.000000000000
      0.250000000000      0.400000000000      0.000000000000
      0.312500000000      0.400000000000      0.000000000000
      0.375000000000      0.400000000000      0.000000000000
      0.437500000000      0.400000000000      0.000000000000
      0.500000000000      0.400000000000      0.000000000000
     -0.437500000000      0.400000000000      0.000000000000
     -0.375000000000      0.400000000000      0.000000000000
     -0.312500000000      0.400000000000      0.000000000000
     -0.250000000000      0.400000000000      0.000000000000
     -0.187500000000      0.400000000000      0.000000000000
     -0.125000000000      0.400000000000      0.000000000000
     -0.062500000000      0.400000000000      0.000000000000
      0.000000000000      0.500000000000      0.000000000000
      0.062500000000      0.500000000000      0.000000000000
      0.125000000000      0.500000000000      0.000000000000
      0.187500000000      0.500000000000      0.000000000000
      0.250000000000      0.500000000000      0.000000000000
      0.312500000000      0.500000000000      0.000000000000
      0.375000000000      0.500000000000      0.000000000000
      0.437500000000      0.500000000000      0.000000000000
      0.500000000000      0.500000000000      0.000000000000
     -0.062500000000      0.000000000000      0.000000000000
     -0.125000000000      0.000000000000      0.000000000000
     -0.187500000000      0.000000000000      0.000000000000
     -0.250000000000      0.000000000000      0.000000000000
     -0.312500000000      0.000000000000      0.000000000000
     -0.375000000000      0.000000000000      0.000000000000
     -0.437500000000      0.000000000000      0.000000000000
      0.000000000000     -0.100000000000      0.000000000000
     -0.062500000000     -0.100000000000      0.000000000000
     -0.125000000000     -0.100000000000      0.000000000000
     -0.187500000000     -0.100000000000      0.000000000000
     -0.250000000000     -0.100000000000      0.000000000000
     -0.312500000000     -0.100000000000      0.000000000000
     -0.375000000000     -0.100000000000      0.000000000000
     -0.437500000000     -0.100000000000      0.000000000000
     -0.500000000000     -0.100000000000      0.000000000000
      0.437500000000     -0.100000000000      0.000000000000
      0.375000000000     -0.100000000000      0.000000000000
      0.312500000000     -0.100000000000      0.000000000000
      0.250000000000     -0.100000000000      0.000000000000
      0.187500000000     -0.100000000000      0.000000000000
      0.125000000000     -0.100000000000      0.000000000000
      0.062500000000     -0.100000000000      0.000000000000
      0.000000000000     -0.200000000000      0.000000000000
     -0.062500000000     -0.200000000000      0.000000000000
     -0.125000000000     -0.200000000000      0.000000000000
     -0.187500000000     -0.200000000000      0.000000000000
     -0.250000000000     -0.200000000000      0.000000000000
     -0.312500000000     -0.200000000000      0.000000000000
     -0.375000000000     -0.200000000000      0.000000000000
     -0.437500000000     -0.200000000000      0.000000000000
     -0.500000000000     -0.200000000000      0.000000000000
      0.437500000000     -0.200000000000      0.000000000000
      0.375000000000     -0.200000000000      0.000000000000
      0.312500000000     -0.200000000000      0.000000000000
      0.250000000000     -0.200000000000      0.000000000000
      0.187500000000     -0.200000000000      0.000000000000
      0.125000000000     -0.200000000000      0.000000000000
      0.062500000000     -0.200000000000      0.000000000000
      0.000000000000     -0.300000000000      0.000000000000
     -0.062500000000     -0.300000000000      0.000000000000
     -0.125000000000     -0.300000000000      0.000000000000
     -0.187500000000     -0.300000000000      0.000000000000
     -0.250000000000     -0.300000000000      0.000000000000
     -0.312500000000     -0.300000000000      0.000000000000
     -0.375000000000     -0.300000000000      0.000000000000
     -0.437500000000     -0.300000000000      0.000000000000
     -0.500000000000     -0.300000000000      0.000000000000
      0.437500000000     -0.300000000000      0.000000000000
      0.375000000000     -0.300000000000      0.000000000000
      0.312500000000     -0.300000000000      0.000000000000
      0.250000000000     -0.300000000000      0.000000000000
      0.187500000000     -0.300000000000      0.000000000000
      0.125000000000     -0.300000000000      0.000000000000
      0.062500000000     -0.300000000000      0.000000000000
      0.000000000000     -0.400000000000      0.000000000000
     -0.062500000000     -0.400000000000      0.000000000000
     -0.125000000000     -0.400000000000      0.000000000000
     -0.187500000000     -0.400000000000      0.000000000000
     -0.250000000000     -0.400000000000      0.000000000000
     -0.312500000000     -0.400000000000      0.000000000000
     -0.375000000000     -0.400000000000      0.000000000000
     -0.437500000000     -0.400000000000      0.000000000000
     -0.500000000000     -0.400000000000      0.000000000000
      0.437500000000     -0.400000000000      0.000000000000
      0.375000000000     -0.400000000000      0.000000000000
      0.312500000000     -0.400000000000      0.000000000000
      0.250000000000     -0.400000000000      0.000000000000
      0.187500000000     -0.400000000000      0.000000000000
      0.125000000000     -0.400000000000      0.000000000000
      0.062500000000     -0.400000000000      0.000000000000
     -0.062500000000     -0.500000000000      0.000000000000
     -0.125000000000     -0.500000000000      0.000000000000
     -0.187500000000     -0.500000000000      0.000000000000
     -0.250000000000     -0.500000000000      0.000000000000
     -0.312500000000     -0.500000000000      0.000000000000
     -0.375000000000     -0.500000000000      0.000000000000
     -0.437500000000     -0.500000000000      0.000000000000
end kpoints
