 num_wann =   48  ! set to NBANDS by VASP
 num_bands = 72

#exclude_band = 1-12

dis_win_max       = 4.6d0
dis_froz_max      =  -1.4d0
dis_num_iter      =  1000
dis_mix_ratio     = 1.d0

Begin Projections
Te: s;p
End Projections

num_iter=500

hr_plot=T

guiding_centres=true
write_xyz = true
translate_home_cell = false
spinors = .true.

#fermisurface
fermi_energy = -1.4949 
fermi_surface_plot = true

# Bandstructure plot
#restart         =  plot
#bands_plot      =  true
begin kpoint_path
G 0   0  0        Y 0 0.5 0
Y 0   0.5    0    M 0.5  0.5 0
M 0.5 0.5  0      X  0.5 0  0
X 0.5 0 0        G 0  0  0
G 0  0  0       M  0.5 0.5 0
end kpoint_path
bands_num_points 40
bands_plot_format gnuplot xmgrace

begin unit_cell_cart
     4.3374059     0.0000000     0.0000000
     0.0000000     5.7940799     0.0000000
     0.0000000     0.0000000    25.9616000
end unit_cell_cart

begin atoms_cart
Te       2.8197624     1.8612578    12.0684431
Te       0.6059071     2.0305608    15.9755590
Te       0.9117603     5.7304886    10.9973257
Te       0.6510595     3.9328221    13.8931569
Te       2.7746100     3.7635191     9.9860410
Te       3.0804633     0.0635913    14.9642743
end atoms_cart

mp_grid =    16    10     1

begin kpoints
      0.000000000000      0.000000000000      0.000000000000
      0.062500000000      0.000000000000      0.000000000000
      0.125000000000      0.000000000000      0.000000000000
      0.187500000000      0.000000000000      0.000000000000
      0.250000000000      0.000000000000      0.000000000000
      0.312500000000      0.000000000000      0.000000000000
      0.375000000000      0.000000000000      0.000000000000
      0.437500000000      0.000000000000      0.000000000000
      0.500000000000      0.000000000000      0.000000000000
     -0.437500000000      0.000000000000      0.000000000000
     -0.375000000000      0.000000000000      0.000000000000
     -0.312500000000      0.000000000000      0.000000000000
     -0.250000000000      0.000000000000      0.000000000000
     -0.187500000000      0.000000000000      0.000000000000
     -0.125000000000      0.000000000000      0.000000000000
     -0.062500000000      0.000000000000      0.000000000000
      0.000000000000      0.100000000000      0.000000000000
      0.062500000000      0.100000000000      0.000000000000
      0.125000000000      0.100000000000      0.000000000000
      0.187500000000      0.100000000000      0.000000000000
      0.250000000000      0.100000000000      0.000000000000
      0.312500000000      0.100000000000      0.000000000000
      0.375000000000      0.100000000000      0.000000000000
      0.437500000000      0.100000000000      0.000000000000
      0.500000000000      0.100000000000      0.000000000000
     -0.437500000000      0.100000000000      0.000000000000
     -0.375000000000      0.100000000000      0.000000000000
     -0.312500000000      0.100000000000      0.000000000000
     -0.250000000000      0.100000000000      0.000000000000
     -0.187500000000      0.100000000000      0.000000000000
     -0.125000000000      0.100000000000      0.000000000000
     -0.062500000000      0.100000000000      0.000000000000
      0.000000000000      0.200000000000      0.000000000000
      0.062500000000      0.200000000000      0.000000000000
      0.125000000000      0.200000000000      0.000000000000
      0.187500000000      0.200000000000      0.000000000000
      0.250000000000      0.200000000000      0.000000000000
      0.312500000000      0.200000000000      0.000000000000
      0.375000000000      0.200000000000      0.000000000000
      0.437500000000      0.200000000000      0.000000000000
      0.500000000000      0.200000000000      0.000000000000
     -0.437500000000      0.200000000000      0.000000000000
     -0.375000000000      0.200000000000      0.000000000000
     -0.312500000000      0.200000000000      0.000000000000
     -0.250000000000      0.200000000000      0.000000000000
     -0.187500000000      0.200000000000      0.000000000000
     -0.125000000000      0.200000000000      0.000000000000
     -0.062500000000      0.200000000000      0.000000000000
      0.000000000000      0.300000000000      0.000000000000
      0.062500000000      0.300000000000      0.000000000000
      0.125000000000      0.300000000000      0.000000000000
      0.187500000000      0.300000000000      0.000000000000
      0.250000000000      0.300000000000      0.000000000000
      0.312500000000      0.300000000000      0.000000000000
      0.375000000000      0.300000000000      0.000000000000
      0.437500000000      0.300000000000      0.000000000000
      0.500000000000      0.300000000000      0.000000000000
     -0.437500000000      0.300000000000      0.000000000000
     -0.375000000000      0.300000000000      0.000000000000
     -0.312500000000      0.300000000000      0.000000000000
     -0.250000000000      0.300000000000      0.000000000000
     -0.187500000000      0.300000000000      0.000000000000
     -0.125000000000      0.300000000000      0.000000000000
     -0.062500000000      0.300000000000      0.000000000000
      0.000000000000      0.400000000000      0.000000000000
      0.062500000000      0.400000000000      0.000000000000
      0.125000000000      0.400000000000      0.000000000000
      0.187500000000      0.400000000000      0.000000000000
      0.250000000000      0.400000000000      0.000000000000
      0.312500000000      0.400000000000      0.000000000000
      0.375000000000      0.400000000000      0.000000000000
      0.437500000000      0.400000000000      0.000000000000
      0.500000000000      0.400000000000      0.000000000000
     -0.437500000000      0.400000000000      0.000000000000
     -0.375000000000      0.400000000000      0.000000000000
     -0.312500000000      0.400000000000      0.000000000000
     -0.250000000000      0.400000000000      0.000000000000
     -0.187500000000      0.400000000000      0.000000000000
     -0.125000000000      0.400000000000      0.000000000000
     -0.062500000000      0.400000000000      0.000000000000
      0.000000000000      0.500000000000      0.000000000000
      0.062500000000      0.500000000000      0.000000000000
      0.125000000000      0.500000000000      0.000000000000
      0.187500000000      0.500000000000      0.000000000000
      0.250000000000      0.500000000000      0.000000000000
      0.312500000000      0.500000000000      0.000000000000
      0.375000000000      0.500000000000      0.000000000000
      0.437500000000      0.500000000000      0.000000000000
      0.500000000000      0.500000000000      0.000000000000
     -0.437500000000      0.500000000000      0.000000000000
     -0.375000000000      0.500000000000      0.000000000000
     -0.312500000000      0.500000000000      0.000000000000
     -0.250000000000      0.500000000000      0.000000000000
     -0.187500000000      0.500000000000      0.000000000000
     -0.125000000000      0.500000000000      0.000000000000
     -0.062500000000      0.500000000000      0.000000000000
      0.000000000000     -0.400000000000      0.000000000000
      0.062500000000     -0.400000000000      0.000000000000
      0.125000000000     -0.400000000000      0.000000000000
      0.187500000000     -0.400000000000      0.000000000000
      0.250000000000     -0.400000000000      0.000000000000
      0.312500000000     -0.400000000000      0.000000000000
      0.375000000000     -0.400000000000      0.000000000000
      0.437500000000     -0.400000000000      0.000000000000
      0.500000000000     -0.400000000000      0.000000000000
     -0.437500000000     -0.400000000000      0.000000000000
     -0.375000000000     -0.400000000000      0.000000000000
     -0.312500000000     -0.400000000000      0.000000000000
     -0.250000000000     -0.400000000000      0.000000000000
     -0.187500000000     -0.400000000000      0.000000000000
     -0.125000000000     -0.400000000000      0.000000000000
     -0.062500000000     -0.400000000000      0.000000000000
      0.000000000000     -0.300000000000      0.000000000000
      0.062500000000     -0.300000000000      0.000000000000
      0.125000000000     -0.300000000000      0.000000000000
      0.187500000000     -0.300000000000      0.000000000000
      0.250000000000     -0.300000000000      0.000000000000
      0.312500000000     -0.300000000000      0.000000000000
      0.375000000000     -0.300000000000      0.000000000000
      0.437500000000     -0.300000000000      0.000000000000
      0.500000000000     -0.300000000000      0.000000000000
     -0.437500000000     -0.300000000000      0.000000000000
     -0.375000000000     -0.300000000000      0.000000000000
     -0.312500000000     -0.300000000000      0.000000000000
     -0.250000000000     -0.300000000000      0.000000000000
     -0.187500000000     -0.300000000000      0.000000000000
     -0.125000000000     -0.300000000000      0.000000000000
     -0.062500000000     -0.300000000000      0.000000000000
      0.000000000000     -0.200000000000      0.000000000000
      0.062500000000     -0.200000000000      0.000000000000
      0.125000000000     -0.200000000000      0.000000000000
      0.187500000000     -0.200000000000      0.000000000000
      0.250000000000     -0.200000000000      0.000000000000
      0.312500000000     -0.200000000000      0.000000000000
      0.375000000000     -0.200000000000      0.000000000000
      0.437500000000     -0.200000000000      0.000000000000
      0.500000000000     -0.200000000000      0.000000000000
     -0.437500000000     -0.200000000000      0.000000000000
     -0.375000000000     -0.200000000000      0.000000000000
     -0.312500000000     -0.200000000000      0.000000000000
     -0.250000000000     -0.200000000000      0.000000000000
     -0.187500000000     -0.200000000000      0.000000000000
     -0.125000000000     -0.200000000000      0.000000000000
     -0.062500000000     -0.200000000000      0.000000000000
      0.000000000000     -0.100000000000      0.000000000000
      0.062500000000     -0.100000000000      0.000000000000
      0.125000000000     -0.100000000000      0.000000000000
      0.187500000000     -0.100000000000      0.000000000000
      0.250000000000     -0.100000000000      0.000000000000
      0.312500000000     -0.100000000000      0.000000000000
      0.375000000000     -0.100000000000      0.000000000000
      0.437500000000     -0.100000000000      0.000000000000
      0.500000000000     -0.100000000000      0.000000000000
     -0.437500000000     -0.100000000000      0.000000000000
     -0.375000000000     -0.100000000000      0.000000000000
     -0.312500000000     -0.100000000000      0.000000000000
     -0.250000000000     -0.100000000000      0.000000000000
     -0.187500000000     -0.100000000000      0.000000000000
     -0.125000000000     -0.100000000000      0.000000000000
     -0.062500000000     -0.100000000000      0.000000000000
end kpoints
