Te
1.0
  2.223465000000  -3.851154348851   0.000000000000
  2.223465000000   3.851154348851   0.000000000000
  0.000000000000   0.000000000000   5.914920000000
Te
  3
Selective dynamics
Direct
  0.269000000000  -0.000000000000   0.166666666667  T T T
 -0.000000000000   0.269000000000   0.833333333333  T T T
  0.731000000000   0.731000000000   0.500000000000  T T T
