Bi-MLx                                  
   1.00000000000000     
     4.6081269116945105    0.0000000000000000    0.0000000000000000
     0.0000000000000000    4.4667201625382695    0.0000000000000000
     0.0000000000000000    0.0000000000000000   20.0000000000000000
   Bi
     4
Direct
  0.0556843102265672  0.5000000000000000  0.5605066804580009
 -0.0001743332265675  0.5000000000000000  0.4119672918461136
  0.5556843172265717  0.0000000000000000  0.4394933195419990
  0.4998256967734349  0.0000000000000000  0.5880327081538868
 
  0.00000000E+00  0.00000000E+00  0.00000000E+00
  0.00000000E+00  0.00000000E+00  0.00000000E+00
  0.00000000E+00  0.00000000E+00  0.00000000E+00
  0.00000000E+00  0.00000000E+00  0.00000000E+00
