Bi-MLx                                  
   1.00000000000000     
     4.6076559387111713    0.0000000000000000    0.0000000000000000
     0.0000000000000000    4.4662385062555812    0.0000000000000000
     0.0000000000000000    0.0000000000000000   20.0000000000000000
   Bi
     4
Direct
  0.0556927770114828  0.5000000000000000  0.5605019803803839
  0.9998171999885170  0.5000000000000000  0.4119711797385034
  0.5556927840114869  0.0000000000000000  0.4119711797385034
  0.4998172299885195  0.0000000000000000  0.5605019803803839
