In Se                                   
   1.00000000000000     
     4.1017590577881515    0.0000000000000000    0.0000000000000000
     2.0508795288940758    3.5522273340152002    0.0000000000000000
     0.0000000000000000    0.0000000000000000   28.7429748668999991
   In   Se
     2     3
Selective dynamics
Direct
  0.8333323238307779  0.8333323827359090  0.5718746068254847   T   T   T
  0.4999966206462256  0.4999960508502503  0.4247132495453463   T   T   T
  0.1666626358453673  0.1666625517470569  0.3813501338248227   T   T   T
  0.1666656726880990  0.1666661457896162  0.6178351420478212   T   T   T
  0.4999977469895290  0.4999978688771662  0.5133568677565312   T   T   T
 
  0.00000000E+00  0.00000000E+00  0.00000000E+00
  0.00000000E+00  0.00000000E+00  0.00000000E+00
  0.00000000E+00  0.00000000E+00  0.00000000E+00
  0.00000000E+00  0.00000000E+00  0.00000000E+00
  0.00000000E+00  0.00000000E+00  0.00000000E+00
