graphene d=a0                           
   1.0000000000000000     
     4.2662204051134891    0.0000000000000000    0.0000000000000000
     0.0000000000000000    2.4651886975380246    0.0000000000000000
     0.0000000000000000    0.0000000000000000   20.0000000000000000
   C 
     4
Direct
  0.3333468827094492  0.0000000000000000  0.5000000000000000
  0.6666531173140271  0.0000000000000000  0.5000000000000000
  0.1666531171849215  0.5000000000406573  0.5000000000000000
  0.8333468828385548  0.5000000000406573  0.5000000000000000

  0.00000000E+00  0.00000000E+00  0.00000000E+00
  0.00000000E+00  0.00000000E+00  0.00000000E+00
  0.00000000E+00  0.00000000E+00  0.00000000E+00
  0.00000000E+00  0.00000000E+00  0.00000000E+00
