num_wann = 2  ! set to NBANDS by VASP
num_iter = 0
num_bands = 16

Begin Projections
C: pz
End Projections

dis_win_min=-25
dis_win_max=20
dis_froz_min=-4.2392
dis_froz_max=0.2393

guiding_centres= true

write_hr = true

restart = plot
bands_plot = true
bands_num_points = 100
begin kpoint_path
G 0.00000  0.00000 0.0000 X 0.5	0.0 0.0
X 0.5 0.0 0.0 M 0.33333 0.33333 0.0
M 0.33333 0.33333 0.0 G 0.00000  0.00000 0.0000
end kpoint_path


begin unit_cell_cart
     2.4641383     0.0000000     0.0000000
    -1.2320691     2.1340063     0.0000000
     0.0000000     0.0000000    15.0000000
end unit_cell_cart

begin atoms_cart
C        0.0000000     0.0000000     2.1712594
C        1.2320703     0.7113347     2.1712594
end atoms_cart

mp_grid =    15    15     1

begin kpoints
      0.000000000000      0.000000000000      0.000000000000
      0.066666666667      0.000000000000      0.000000000000
      0.133333333333      0.000000000000      0.000000000000
      0.200000000000      0.000000000000      0.000000000000
      0.266666666667      0.000000000000      0.000000000000
      0.333333333333      0.000000000000      0.000000000000
      0.400000000000      0.000000000000      0.000000000000
      0.466666666667      0.000000000000      0.000000000000
      0.066666666667      0.066666666667      0.000000000000
      0.133333333333      0.066666666667      0.000000000000
      0.200000000000      0.066666666667      0.000000000000
      0.266666666667      0.066666666667      0.000000000000
      0.333333333333      0.066666666667      0.000000000000
      0.400000000000      0.066666666667      0.000000000000
      0.466666666667      0.066666666667      0.000000000000
      0.133333333333      0.133333333333      0.000000000000
      0.200000000000      0.133333333333      0.000000000000
      0.266666666667      0.133333333333      0.000000000000
      0.333333333333      0.133333333333      0.000000000000
      0.400000000000      0.133333333333      0.000000000000
      0.200000000000      0.200000000000      0.000000000000
      0.266666666667      0.200000000000      0.000000000000
      0.333333333333      0.200000000000      0.000000000000
      0.400000000000      0.200000000000      0.000000000000
      0.266666666667      0.266666666667      0.000000000000
      0.333333333333      0.266666666667      0.000000000000
      0.333333333333      0.333333333333      0.000000000000
     -0.066666666667      0.066666666667      0.000000000000
      0.000000000000     -0.066666666667      0.000000000000
     -0.066666666667     -0.000000000000     -0.000000000000
     -0.000000000000      0.066666666667      0.000000000000
      0.066666666667     -0.066666666667     -0.000000000000
     -0.133333333333      0.133333333333      0.000000000000
      0.000000000000     -0.133333333333      0.000000000000
     -0.133333333333     -0.000000000000     -0.000000000000
     -0.000000000000      0.133333333333      0.000000000000
      0.133333333333     -0.133333333333     -0.000000000000
     -0.200000000000      0.200000000000      0.000000000000
      0.000000000000     -0.200000000000      0.000000000000
     -0.200000000000     -0.000000000000     -0.000000000000
     -0.000000000000      0.200000000000      0.000000000000
      0.200000000000     -0.200000000000     -0.000000000000
     -0.266666666667      0.266666666667      0.000000000000
      0.000000000000     -0.266666666667      0.000000000000
     -0.266666666667     -0.000000000000     -0.000000000000
     -0.000000000000      0.266666666667      0.000000000000
      0.266666666667     -0.266666666667     -0.000000000000
     -0.333333333333      0.333333333333      0.000000000000
      0.000000000000     -0.333333333333      0.000000000000
     -0.333333333333     -0.000000000000     -0.000000000000
     -0.000000000000      0.333333333333      0.000000000000
      0.333333333333     -0.333333333333     -0.000000000000
     -0.400000000000      0.400000000000      0.000000000000
      0.000000000000     -0.400000000000      0.000000000000
     -0.400000000000     -0.000000000000     -0.000000000000
     -0.000000000000      0.400000000000      0.000000000000
      0.400000000000     -0.400000000000     -0.000000000000
     -0.466666666667      0.466666666667      0.000000000000
      0.000000000000     -0.466666666667      0.000000000000
     -0.466666666667     -0.000000000000     -0.000000000000
     -0.000000000000      0.466666666667      0.000000000000
      0.466666666667     -0.466666666667     -0.000000000000
     -0.133333333333      0.066666666667      0.000000000000
      0.066666666667     -0.133333333333      0.000000000000
     -0.066666666667      0.133333333333      0.000000000000
      0.133333333333     -0.066666666667      0.000000000000
     -0.066666666667     -0.066666666667      0.000000000000
     -0.200000000000      0.133333333333      0.000000000000
      0.066666666667     -0.200000000000      0.000000000000
     -0.133333333333      0.200000000000      0.000000000000
      0.200000000000     -0.066666666667      0.000000000000
     -0.066666666667     -0.133333333333      0.000000000000
     -0.133333333333     -0.066666666667     -0.000000000000
     -0.066666666667      0.200000000000      0.000000000000
      0.200000000000     -0.133333333333     -0.000000000000
      0.133333333333     -0.200000000000     -0.000000000000
      0.066666666667      0.133333333333      0.000000000000
     -0.200000000000      0.066666666667     -0.000000000000
     -0.266666666667      0.200000000000      0.000000000000
      0.066666666667     -0.266666666667      0.000000000000
     -0.200000000000      0.266666666667      0.000000000000
      0.266666666667     -0.066666666667      0.000000000000
     -0.066666666667     -0.200000000000      0.000000000000
     -0.200000000000     -0.066666666667     -0.000000000000
     -0.066666666667      0.266666666667      0.000000000000
      0.266666666667     -0.200000000000     -0.000000000000
      0.200000000000     -0.266666666667     -0.000000000000
      0.066666666667      0.200000000000      0.000000000000
     -0.266666666667      0.066666666667     -0.000000000000
     -0.333333333333      0.266666666667      0.000000000000
      0.066666666667     -0.333333333333      0.000000000000
     -0.266666666667      0.333333333333      0.000000000000
      0.333333333333     -0.066666666667      0.000000000000
     -0.066666666667     -0.266666666667      0.000000000000
     -0.266666666667     -0.066666666667     -0.000000000000
     -0.066666666667      0.333333333333      0.000000000000
      0.333333333333     -0.266666666667     -0.000000000000
      0.266666666667     -0.333333333333     -0.000000000000
      0.066666666667      0.266666666667      0.000000000000
     -0.333333333333      0.066666666667     -0.000000000000
     -0.400000000000      0.333333333333      0.000000000000
      0.066666666667     -0.400000000000      0.000000000000
     -0.333333333333      0.400000000000      0.000000000000
      0.400000000000     -0.066666666667      0.000000000000
     -0.066666666667     -0.333333333333      0.000000000000
     -0.333333333333     -0.066666666667     -0.000000000000
     -0.066666666667      0.400000000000      0.000000000000
      0.400000000000     -0.333333333333     -0.000000000000
      0.333333333333     -0.400000000000     -0.000000000000
      0.066666666667      0.333333333333      0.000000000000
     -0.400000000000      0.066666666667     -0.000000000000
     -0.466666666667      0.400000000000      0.000000000000
      0.066666666667     -0.466666666667      0.000000000000
     -0.400000000000      0.466666666667      0.000000000000
      0.466666666667     -0.066666666667      0.000000000000
     -0.066666666667     -0.400000000000      0.000000000000
     -0.400000000000     -0.066666666667     -0.000000000000
     -0.066666666667      0.466666666667      0.000000000000
      0.466666666667     -0.400000000000     -0.000000000000
      0.400000000000     -0.466666666667     -0.000000000000
      0.066666666667      0.400000000000      0.000000000000
     -0.466666666667      0.066666666667     -0.000000000000
     -0.533333333333      0.466666666667      0.000000000000
      0.066666666667     -0.533333333333      0.000000000000
     -0.466666666667      0.533333333333      0.000000000000
      0.533333333333     -0.066666666667      0.000000000000
     -0.066666666667     -0.466666666667      0.000000000000
     -0.266666666667      0.133333333333      0.000000000000
      0.133333333333     -0.266666666667      0.000000000000
     -0.133333333333      0.266666666667      0.000000000000
      0.266666666667     -0.133333333333      0.000000000000
     -0.133333333333     -0.133333333333      0.000000000000
     -0.333333333333      0.200000000000      0.000000000000
      0.133333333333     -0.333333333333      0.000000000000
     -0.200000000000      0.333333333333      0.000000000000
      0.333333333333     -0.133333333333      0.000000000000
     -0.133333333333     -0.200000000000      0.000000000000
     -0.200000000000     -0.133333333333     -0.000000000000
     -0.133333333333      0.333333333333      0.000000000000
      0.333333333333     -0.200000000000     -0.000000000000
      0.200000000000     -0.333333333333     -0.000000000000
      0.133333333333      0.200000000000      0.000000000000
     -0.333333333333      0.133333333333     -0.000000000000
     -0.400000000000      0.266666666667      0.000000000000
      0.133333333333     -0.400000000000      0.000000000000
     -0.266666666667      0.400000000000      0.000000000000
      0.400000000000     -0.133333333333      0.000000000000
     -0.133333333333     -0.266666666667      0.000000000000
     -0.266666666667     -0.133333333333     -0.000000000000
     -0.133333333333      0.400000000000      0.000000000000
      0.400000000000     -0.266666666667     -0.000000000000
      0.266666666667     -0.400000000000     -0.000000000000
      0.133333333333      0.266666666667      0.000000000000
     -0.400000000000      0.133333333333     -0.000000000000
     -0.466666666667      0.333333333333      0.000000000000
      0.133333333333     -0.466666666667      0.000000000000
     -0.333333333333      0.466666666667      0.000000000000
      0.466666666667     -0.133333333333      0.000000000000
     -0.133333333333     -0.333333333333      0.000000000000
     -0.333333333333     -0.133333333333     -0.000000000000
     -0.133333333333      0.466666666667      0.000000000000
      0.466666666667     -0.333333333333     -0.000000000000
      0.333333333333     -0.466666666667     -0.000000000000
      0.133333333333      0.333333333333      0.000000000000
     -0.466666666667      0.133333333333     -0.000000000000
     -0.533333333333      0.400000000000      0.000000000000
      0.133333333333     -0.533333333333      0.000000000000
     -0.400000000000      0.533333333333      0.000000000000
      0.533333333333     -0.133333333333      0.000000000000
     -0.133333333333     -0.400000000000      0.000000000000
     -0.400000000000     -0.133333333333     -0.000000000000
     -0.133333333333      0.533333333333      0.000000000000
      0.533333333333     -0.400000000000     -0.000000000000
      0.400000000000     -0.533333333333     -0.000000000000
      0.133333333333      0.400000000000      0.000000000000
     -0.533333333333      0.133333333333     -0.000000000000
     -0.400000000000      0.200000000000      0.000000000000
      0.200000000000     -0.400000000000      0.000000000000
     -0.200000000000      0.400000000000      0.000000000000
      0.400000000000     -0.200000000000      0.000000000000
     -0.200000000000     -0.200000000000      0.000000000000
     -0.466666666667      0.266666666667      0.000000000000
      0.200000000000     -0.466666666667      0.000000000000
     -0.266666666667      0.466666666667      0.000000000000
      0.466666666667     -0.200000000000      0.000000000000
     -0.200000000000     -0.266666666667      0.000000000000
     -0.266666666667     -0.200000000000     -0.000000000000
     -0.200000000000      0.466666666667      0.000000000000
      0.466666666667     -0.266666666667     -0.000000000000
      0.266666666667     -0.466666666667     -0.000000000000
      0.200000000000      0.266666666667      0.000000000000
     -0.466666666667      0.200000000000     -0.000000000000
     -0.533333333333      0.333333333333      0.000000000000
      0.200000000000     -0.533333333333      0.000000000000
     -0.333333333333      0.533333333333      0.000000000000
      0.533333333333     -0.200000000000      0.000000000000
     -0.200000000000     -0.333333333333      0.000000000000
     -0.333333333333     -0.200000000000     -0.000000000000
     -0.200000000000      0.533333333333      0.000000000000
      0.533333333333     -0.333333333333     -0.000000000000
      0.333333333333     -0.533333333333     -0.000000000000
      0.200000000000      0.333333333333      0.000000000000
     -0.533333333333      0.200000000000     -0.000000000000
     -0.600000000000      0.400000000000      0.000000000000
      0.200000000000     -0.600000000000      0.000000000000
     -0.400000000000      0.600000000000      0.000000000000
      0.600000000000     -0.200000000000      0.000000000000
     -0.200000000000     -0.400000000000      0.000000000000
     -0.533333333333      0.266666666667      0.000000000000
      0.266666666667     -0.533333333333      0.000000000000
     -0.266666666667      0.533333333333      0.000000000000
      0.533333333333     -0.266666666667      0.000000000000
     -0.266666666667     -0.266666666667      0.000000000000
     -0.600000000000      0.333333333333      0.000000000000
      0.266666666667     -0.600000000000      0.000000000000
     -0.333333333333      0.600000000000      0.000000000000
      0.600000000000     -0.266666666667      0.000000000000
     -0.266666666667     -0.333333333333      0.000000000000
     -0.333333333333     -0.266666666667     -0.000000000000
     -0.266666666667      0.600000000000      0.000000000000
      0.600000000000     -0.333333333333     -0.000000000000
      0.333333333333     -0.600000000000     -0.000000000000
      0.266666666667      0.333333333333      0.000000000000
     -0.600000000000      0.266666666667     -0.000000000000
     -0.333333333333      0.666666666667      0.000000000000
end kpoints
