Rotated POSCAR by SURFACE card in wt.in by WannierTools
1.0
    4.607656    0.000000    0.000000
    0.000000    4.466239    0.000000
    0.000000    0.000000   20.000000
    2
Direct
    0.055693    0.500000    0.560502       Bi
    0.999817    0.500000    0.411971       Bi
