Rotated POSCAR by SURFACE card in wt.in by WannierTools
1.0
    3.152669    1.820196    0.000000
    0.000000    0.000000   15.000000
    2.101780   -3.640393    0.000000
    2
Direct
    0.666667    0.717875    0.000000       Bi
    0.333333    0.602453    0.500000       Bi
