num_wann        =  22
num_bands = 22
num_iter        = 0

begin projections
In:s
Se:p
end projections

exclude_bands:1-26,49-72
write_hr=.true.

#wannier_plot = true
#wannier_plot_list = 1 2 3 4 5 6 7 8 9 10 11 12 13 14 15 16 17 18 19 20 21
#wannier_plot_supercell = 2 2 1

#restart = plot
#bands_plot = true
bands_num_points = 50
bands_plot_format = gnuplot
begin kpoint_path
G 0.00000  0.00000 0.0000 Y 0.00000  0.50000 0.0000
Y 0.00000  0.50000 0.0000 M 0.33333  0.33333 0.0000
M 0.33333  0.33333 0.0000 G 0.00000  0.00000 0.0000
end kpoint_path

spinors = .true.

begin unit_cell_cart
     4.1028399     0.0000000     0.0000000
     2.0514200     3.5531636     0.0000000
     0.0000000     0.0000000    28.7429749
end unit_cell_cart

begin atoms_cart
In       5.1285422     2.9609653    16.4370728
In       3.0771064     1.7765682    12.2077122
Se       1.0256871     0.5921807    10.9620172
Se       1.0257049     0.5921910    17.7575191
Se       3.0771173     1.7765745    14.7555392
end atoms_cart

mp_grid =     9     9     1

begin kpoints
      0.000000000000      0.000000000000      0.000000000000
      0.111111111111     -0.000000000000     -0.000000000000
      0.222222222222     -0.000000000000     -0.000000000000
      0.333333333333      0.000000000000      0.000000000000
      0.444444444444     -0.000000000000     -0.000000000000
     -0.444444444444      0.000000000000      0.000000000000
     -0.333333333333      0.000000000000      0.000000000000
     -0.222222222222      0.000000000000      0.000000000000
     -0.111111111111      0.000000000000      0.000000000000
      0.000000000000      0.111111111111      0.000000000000
      0.111111111111      0.111111111111      0.000000000000
      0.222222222222      0.111111111111     -0.000000000000
      0.333333333333      0.111111111111      0.000000000000
      0.444444444444      0.111111111111     -0.000000000000
     -0.444444444444      0.111111111111      0.000000000000
     -0.333333333333      0.111111111111      0.000000000000
     -0.222222222222      0.111111111111      0.000000000000
     -0.111111111111      0.111111111111      0.000000000000
      0.000000000000      0.222222222222      0.000000000000
      0.111111111111      0.222222222222      0.000000000000
      0.222222222222      0.222222222222      0.000000000000
      0.333333333333      0.222222222222      0.000000000000
      0.444444444444      0.222222222222      0.000000000000
     -0.444444444444      0.222222222222      0.000000000000
     -0.333333333333      0.222222222222      0.000000000000
     -0.222222222222      0.222222222222      0.000000000000
     -0.111111111111      0.222222222222      0.000000000000
      0.000000000000      0.333333333333      0.000000000000
      0.111111111111      0.333333333333      0.000000000000
      0.222222222222      0.333333333333      0.000000000000
      0.333333333333      0.333333333333      0.000000000000
      0.444444444444      0.333333333333     -0.000000000000
     -0.444444444444      0.333333333333      0.000000000000
     -0.333333333333      0.333333333333      0.000000000000
     -0.222222222222      0.333333333333      0.000000000000
     -0.111111111111      0.333333333333      0.000000000000
      0.000000000000      0.444444444444      0.000000000000
      0.111111111111      0.444444444444      0.000000000000
      0.222222222222      0.444444444444      0.000000000000
      0.333333333333      0.444444444444      0.000000000000
      0.444444444444      0.444444444444      0.000000000000
     -0.444444444444      0.444444444444      0.000000000000
     -0.333333333333      0.444444444444      0.000000000000
     -0.222222222222      0.444444444444      0.000000000000
     -0.111111111111      0.444444444444      0.000000000000
      0.000000000000     -0.444444444444     -0.000000000000
      0.111111111111     -0.444444444444      0.000000000000
      0.222222222222     -0.444444444444     -0.000000000000
      0.333333333333     -0.444444444444     -0.000000000000
      0.444444444444     -0.444444444444     -0.000000000000
     -0.444444444444     -0.444444444444     -0.000000000000
     -0.333333333333     -0.444444444444     -0.000000000000
     -0.222222222222     -0.444444444444     -0.000000000000
     -0.111111111111     -0.444444444444     -0.000000000000
      0.000000000000     -0.333333333333      0.000000000000
      0.111111111111     -0.333333333333     -0.000000000000
      0.222222222222     -0.333333333333     -0.000000000000
      0.333333333333     -0.333333333333     -0.000000000000
      0.444444444444     -0.333333333333     -0.000000000000
     -0.444444444444     -0.333333333333     -0.000000000000
     -0.333333333333     -0.333333333333      0.000000000000
     -0.222222222222     -0.333333333333     -0.000000000000
     -0.111111111111     -0.333333333333      0.000000000000
      0.000000000000     -0.222222222222     -0.000000000000
      0.111111111111     -0.222222222222     -0.000000000000
      0.222222222222     -0.222222222222     -0.000000000000
      0.333333333333     -0.222222222222      0.000000000000
      0.444444444444     -0.222222222222     -0.000000000000
     -0.444444444444     -0.222222222222      0.000000000000
     -0.333333333333     -0.222222222222     -0.000000000000
     -0.222222222222     -0.222222222222     -0.000000000000
     -0.111111111111     -0.222222222222     -0.000000000000
      0.000000000000     -0.111111111111     -0.000000000000
      0.111111111111     -0.111111111111     -0.000000000000
      0.222222222222     -0.111111111111     -0.000000000000
      0.333333333333     -0.111111111111      0.000000000000
      0.444444444444     -0.111111111111     -0.000000000000
     -0.444444444444     -0.111111111111      0.000000000000
     -0.333333333333     -0.111111111111     -0.000000000000
     -0.222222222222     -0.111111111111      0.000000000000
     -0.111111111111     -0.111111111111     -0.000000000000
end kpoints
