generated by phonopy                    
   1.0000000000000000     
     4.9294165983410245    0.0000000000000000    0.0000000000000000
    -2.4647082991705123    4.2689999999999992    0.0000000000000000
     0.0000000000000000    0.0000000000000000   20.0000000000000000
   C 
     8
Direct
  0.3333333329999988  0.1666666664999994  0.5000000000000000
  0.8333333329999988  0.1666666664999994  0.5000000000000000
  0.3333333329999988  0.6666666664999994  0.5000000000000000
  0.8333333329999988  0.6666666664999994  0.5000000000000000
  0.1666666664999994  0.3333333329999988  0.5000000000000000
  0.6666666664999994  0.3333333329999988  0.5000000000000000
  0.1666666664999994  0.8333333329999988  0.5000000000000000
  0.6666666664999994  0.8333333329999988  0.5000000000000000

  0.00000000E+00  0.00000000E+00  0.00000000E+00
  0.00000000E+00  0.00000000E+00  0.00000000E+00
  0.00000000E+00  0.00000000E+00  0.00000000E+00
  0.00000000E+00  0.00000000E+00  0.00000000E+00
  0.00000000E+00  0.00000000E+00  0.00000000E+00
  0.00000000E+00  0.00000000E+00  0.00000000E+00
  0.00000000E+00  0.00000000E+00  0.00000000E+00
  0.00000000E+00  0.00000000E+00  0.00000000E+00
