graphene d=a0
1.0
        4.2600002289         0.0000000000         0.0000000000
        0.0000000000         2.4595122338         0.0000000000
        0.0000000000         0.0000000000        20.0000000000
    C
    4
Cartesian
     1.420000076         0.000000000        10.000000000
     2.840000153         0.000000000        10.000000000
     0.710000038         1.229756117        10.000000000
     3.550000191         1.229756117        10.000000000
