iComment Line
30
Line-mode
rec
0	0	0
0.5	0	0

0.5	0	0
0.33333	0.33333	0

0.33333	0.33333	0
0	0	0
