c4
1.0
        2.4677236080         0.0000000000         0.0000000000
       -1.2338618040         2.1371113341         0.0000000000
        0.0000000000         0.0000000000        15.0000000000
    C
    2
Cart
0.0 0.0 2.171259403
1.233862996 0.712369740 2.171259403
