 num_wann =    18  ! set to NBANDS by VASP
 num_bands =   18 

exclude_bands = 1-6

Begin Projections
Te: p
End Projections

guiding_centres=true

#use_bloch_phases = T

#search_shells = 20

hr_plot=T
write_xyz = true
translate_home_cell = false

spinors = .true.

#fermisurface
fermi_energy = -2.6041 
#fermi_surface_plot = true

# Bandstructure plot


#restart         =  plot
#bands_plot      =  true
begin kpoint_path
G 0   0  0        Y 0 0.5 0
Y 0   0.5    0    M 0.5  0.5 0
M 0.5 0.5  0      X  0.5 0  0
X 0.5 0 0        G 0  0  0
G 0  0  0       M  0.5 0.5 0
end kpoint_path
bands_num_points 40
bands_plot_format gnuplot xmgrace


begin unit_cell_cart
     4.3600001     0.0000000     0.0000000
     0.0000000     5.7593999     0.0000000
     0.0000000     0.0000000    18.0000000
end unit_cell_cart

begin atoms_cart
Te       1.1153754     5.5528679     9.5878801
Te       2.9084249     3.6037142    10.6068602
Te       2.8980923     1.7482082     8.5631399
end atoms_cart

mp_grid =    12    10     1

begin kpoints
      0.000000000000      0.000000000000      0.000000000000
      0.083333333333      0.000000000000      0.000000000000
      0.166666666667      0.000000000000      0.000000000000
      0.250000000000      0.000000000000      0.000000000000
      0.333333333333      0.000000000000      0.000000000000
      0.416666666667      0.000000000000      0.000000000000
      0.500000000000      0.000000000000      0.000000000000
     -0.416666666667      0.000000000000      0.000000000000
     -0.333333333333      0.000000000000      0.000000000000
     -0.250000000000      0.000000000000      0.000000000000
     -0.166666666667      0.000000000000      0.000000000000
     -0.083333333333      0.000000000000      0.000000000000
      0.000000000000      0.100000000000      0.000000000000
      0.083333333333      0.100000000000      0.000000000000
      0.166666666667      0.100000000000      0.000000000000
      0.250000000000      0.100000000000      0.000000000000
      0.333333333333      0.100000000000      0.000000000000
      0.416666666667      0.100000000000      0.000000000000
      0.500000000000      0.100000000000      0.000000000000
     -0.416666666667      0.100000000000      0.000000000000
     -0.333333333333      0.100000000000      0.000000000000
     -0.250000000000      0.100000000000      0.000000000000
     -0.166666666667      0.100000000000      0.000000000000
     -0.083333333333      0.100000000000      0.000000000000
      0.000000000000      0.200000000000      0.000000000000
      0.083333333333      0.200000000000      0.000000000000
      0.166666666667      0.200000000000      0.000000000000
      0.250000000000      0.200000000000      0.000000000000
      0.333333333333      0.200000000000      0.000000000000
      0.416666666667      0.200000000000      0.000000000000
      0.500000000000      0.200000000000      0.000000000000
     -0.416666666667      0.200000000000      0.000000000000
     -0.333333333333      0.200000000000      0.000000000000
     -0.250000000000      0.200000000000      0.000000000000
     -0.166666666667      0.200000000000      0.000000000000
     -0.083333333333      0.200000000000      0.000000000000
      0.000000000000      0.300000000000      0.000000000000
      0.083333333333      0.300000000000      0.000000000000
      0.166666666667      0.300000000000      0.000000000000
      0.250000000000      0.300000000000      0.000000000000
      0.333333333333      0.300000000000      0.000000000000
      0.416666666667      0.300000000000      0.000000000000
      0.500000000000      0.300000000000      0.000000000000
     -0.416666666667      0.300000000000      0.000000000000
     -0.333333333333      0.300000000000      0.000000000000
     -0.250000000000      0.300000000000      0.000000000000
     -0.166666666667      0.300000000000      0.000000000000
     -0.083333333333      0.300000000000      0.000000000000
      0.000000000000      0.400000000000      0.000000000000
      0.083333333333      0.400000000000      0.000000000000
      0.166666666667      0.400000000000      0.000000000000
      0.250000000000      0.400000000000      0.000000000000
      0.333333333333      0.400000000000      0.000000000000
      0.416666666667      0.400000000000      0.000000000000
      0.500000000000      0.400000000000      0.000000000000
     -0.416666666667      0.400000000000      0.000000000000
     -0.333333333333      0.400000000000      0.000000000000
     -0.250000000000      0.400000000000      0.000000000000
     -0.166666666667      0.400000000000      0.000000000000
     -0.083333333333      0.400000000000      0.000000000000
      0.000000000000      0.500000000000      0.000000000000
      0.083333333333      0.500000000000      0.000000000000
      0.166666666667      0.500000000000      0.000000000000
      0.250000000000      0.500000000000      0.000000000000
      0.333333333333      0.500000000000      0.000000000000
      0.416666666667      0.500000000000      0.000000000000
      0.500000000000      0.500000000000      0.000000000000
     -0.416666666667      0.500000000000      0.000000000000
     -0.333333333333      0.500000000000      0.000000000000
     -0.250000000000      0.500000000000      0.000000000000
     -0.166666666667      0.500000000000      0.000000000000
     -0.083333333333      0.500000000000      0.000000000000
      0.000000000000     -0.400000000000      0.000000000000
      0.083333333333     -0.400000000000      0.000000000000
      0.166666666667     -0.400000000000      0.000000000000
      0.250000000000     -0.400000000000      0.000000000000
      0.333333333333     -0.400000000000      0.000000000000
      0.416666666667     -0.400000000000      0.000000000000
      0.500000000000     -0.400000000000      0.000000000000
     -0.416666666667     -0.400000000000      0.000000000000
     -0.333333333333     -0.400000000000      0.000000000000
     -0.250000000000     -0.400000000000      0.000000000000
     -0.166666666667     -0.400000000000      0.000000000000
     -0.083333333333     -0.400000000000      0.000000000000
      0.000000000000     -0.300000000000      0.000000000000
      0.083333333333     -0.300000000000      0.000000000000
      0.166666666667     -0.300000000000      0.000000000000
      0.250000000000     -0.300000000000      0.000000000000
      0.333333333333     -0.300000000000      0.000000000000
      0.416666666667     -0.300000000000      0.000000000000
      0.500000000000     -0.300000000000      0.000000000000
     -0.416666666667     -0.300000000000      0.000000000000
     -0.333333333333     -0.300000000000      0.000000000000
     -0.250000000000     -0.300000000000      0.000000000000
     -0.166666666667     -0.300000000000      0.000000000000
     -0.083333333333     -0.300000000000      0.000000000000
      0.000000000000     -0.200000000000      0.000000000000
      0.083333333333     -0.200000000000      0.000000000000
      0.166666666667     -0.200000000000      0.000000000000
      0.250000000000     -0.200000000000      0.000000000000
      0.333333333333     -0.200000000000      0.000000000000
      0.416666666667     -0.200000000000      0.000000000000
      0.500000000000     -0.200000000000      0.000000000000
     -0.416666666667     -0.200000000000      0.000000000000
     -0.333333333333     -0.200000000000      0.000000000000
     -0.250000000000     -0.200000000000      0.000000000000
     -0.166666666667     -0.200000000000      0.000000000000
     -0.083333333333     -0.200000000000      0.000000000000
      0.000000000000     -0.100000000000      0.000000000000
      0.083333333333     -0.100000000000      0.000000000000
      0.166666666667     -0.100000000000      0.000000000000
      0.250000000000     -0.100000000000      0.000000000000
      0.333333333333     -0.100000000000      0.000000000000
      0.416666666667     -0.100000000000      0.000000000000
      0.500000000000     -0.100000000000      0.000000000000
     -0.416666666667     -0.100000000000      0.000000000000
     -0.333333333333     -0.100000000000      0.000000000000
     -0.250000000000     -0.100000000000      0.000000000000
     -0.166666666667     -0.100000000000      0.000000000000
     -0.083333333333     -0.100000000000      0.000000000000
end kpoints
