KPATH for Bandstructure Calculation. See Ref. Comp. Mater. Sci. 49, 299 (2010), doi:10.1016/j.commatsci.201005.0
   10
Line-Mode
Reciprocal
  0.00000000  0.00000000  0.00000000     ! \Gamma
  0.00000000  0.50000000  0.00000000     ! M

  0.00000000  0.50000000  0.00000000     ! M
 -0.33333334  0.66666669  0.00000000     ! K

 -0.33333334  0.66666669  0.00000000     ! K
  0.00000000  0.00000000  0.00000000     ! \Gamma

