num_wann        =  12
num_bands       =  46
num_iter        =  0
exclude_bands:1-2

kmesh_tol=0.00001

dis_win_min=-7.2
dis_win_max=3.5
dis_froz_min=-7.2
dis_froz_max=1.45


begin projections
Bi:p
end projections

guiding_centres = true

#wannier_plot = true
#wannier_plot_list = 1-9
#wannier_plot_supercell = 3 3 1

#write_xyz = true
#write_tb = true
#write_rmn = true
write_hr = true
#write_u_matrices = true

restart = plot
#bands_plot = true
bands_num_points = 50
bands_plot_format = gnuplot
begin kpoint_path
G 0.00000  0.00000 0.0000 Y 0.50000  0.00000 0.0000
Y 0.50000  0.00000 0.0000 M 0.33333  0.33333 0.0000
M 0.33333  0.33333 0.0000 G 0.00000  0.00000 0.0000
end kpoint_path

spinors = .true.

begin unit_cell_cart
     2.1017795    -3.6403930     0.0000000
     2.1017795     3.6403930     0.0000000
     0.0000000     0.0000000    15.0000000
end unit_cell_cart

begin atoms_cart
Bi       2.1017795     1.2134643    10.7681236
Bi       2.1017795    -1.2134643     9.0367958
end atoms_cart

mp_grid =    17    17     1

begin kpoints
      0.000000000000      0.000000000000      0.000000000000
      0.058823529412      0.000000000000      0.000000000000
      0.117647058824      0.000000000000      0.000000000000
      0.176470588235      0.000000000000      0.000000000000
      0.235294117647      0.000000000000      0.000000000000
      0.294117647059      0.000000000000      0.000000000000
      0.352941176471      0.000000000000      0.000000000000
      0.411764705882      0.000000000000      0.000000000000
      0.470588235294      0.000000000000      0.000000000000
      0.000000000000      0.058823529412      0.000000000000
      0.058823529412      0.058823529412      0.000000000000
      0.117647058824      0.058823529412      0.000000000000
      0.176470588235      0.058823529412      0.000000000000
      0.235294117647      0.058823529412      0.000000000000
      0.294117647059      0.058823529412      0.000000000000
      0.352941176471      0.058823529412      0.000000000000
      0.411764705882      0.058823529412      0.000000000000
      0.470588235294      0.058823529412      0.000000000000
     -0.470588235294      0.058823529412      0.000000000000
     -0.411764705882      0.058823529412      0.000000000000
     -0.352941176471      0.058823529412      0.000000000000
     -0.294117647059      0.058823529412      0.000000000000
     -0.235294117647      0.058823529412      0.000000000000
     -0.176470588235      0.058823529412      0.000000000000
     -0.117647058824      0.058823529412      0.000000000000
     -0.058823529412      0.058823529412      0.000000000000
      0.000000000000      0.117647058824      0.000000000000
      0.058823529412      0.117647058824      0.000000000000
      0.117647058824      0.117647058824      0.000000000000
      0.176470588235      0.117647058824      0.000000000000
      0.235294117647      0.117647058824      0.000000000000
      0.294117647059      0.117647058824      0.000000000000
      0.352941176471      0.117647058824      0.000000000000
      0.411764705882      0.117647058824      0.000000000000
      0.470588235294      0.117647058824      0.000000000000
     -0.470588235294      0.117647058824      0.000000000000
     -0.411764705882      0.117647058824      0.000000000000
     -0.352941176471      0.117647058824      0.000000000000
     -0.294117647059      0.117647058824      0.000000000000
     -0.235294117647      0.117647058824      0.000000000000
     -0.176470588235      0.117647058824      0.000000000000
     -0.117647058824      0.117647058824      0.000000000000
     -0.058823529412      0.117647058824      0.000000000000
      0.000000000000      0.176470588235      0.000000000000
      0.058823529412      0.176470588235      0.000000000000
      0.117647058824      0.176470588235      0.000000000000
      0.176470588235      0.176470588235      0.000000000000
      0.235294117647      0.176470588235      0.000000000000
      0.294117647059      0.176470588235      0.000000000000
      0.352941176471      0.176470588235      0.000000000000
      0.411764705882      0.176470588235      0.000000000000
      0.470588235294      0.176470588235      0.000000000000
     -0.470588235294      0.176470588235      0.000000000000
     -0.411764705882      0.176470588235      0.000000000000
     -0.352941176471      0.176470588235      0.000000000000
     -0.294117647059      0.176470588235      0.000000000000
     -0.235294117647      0.176470588235      0.000000000000
     -0.176470588235      0.176470588235      0.000000000000
     -0.117647058824      0.176470588235      0.000000000000
     -0.058823529412      0.176470588235      0.000000000000
      0.000000000000      0.235294117647      0.000000000000
      0.058823529412      0.235294117647      0.000000000000
      0.117647058824      0.235294117647      0.000000000000
      0.176470588235      0.235294117647      0.000000000000
      0.235294117647      0.235294117647      0.000000000000
      0.294117647059      0.235294117647      0.000000000000
      0.352941176471      0.235294117647      0.000000000000
      0.411764705882      0.235294117647      0.000000000000
      0.470588235294      0.235294117647      0.000000000000
     -0.470588235294      0.235294117647      0.000000000000
     -0.411764705882      0.235294117647      0.000000000000
     -0.352941176471      0.235294117647      0.000000000000
     -0.294117647059      0.235294117647      0.000000000000
     -0.235294117647      0.235294117647      0.000000000000
     -0.176470588235      0.235294117647      0.000000000000
     -0.117647058824      0.235294117647      0.000000000000
     -0.058823529412      0.235294117647      0.000000000000
      0.000000000000      0.294117647059      0.000000000000
      0.058823529412      0.294117647059      0.000000000000
      0.117647058824      0.294117647059      0.000000000000
      0.176470588235      0.294117647059      0.000000000000
      0.235294117647      0.294117647059      0.000000000000
      0.294117647059      0.294117647059      0.000000000000
      0.352941176471      0.294117647059      0.000000000000
      0.411764705882      0.294117647059      0.000000000000
      0.470588235294      0.294117647059      0.000000000000
     -0.470588235294      0.294117647059      0.000000000000
     -0.411764705882      0.294117647059      0.000000000000
     -0.352941176471      0.294117647059      0.000000000000
     -0.294117647059      0.294117647059      0.000000000000
     -0.235294117647      0.294117647059      0.000000000000
     -0.176470588235      0.294117647059      0.000000000000
     -0.117647058824      0.294117647059      0.000000000000
     -0.058823529412      0.294117647059      0.000000000000
      0.000000000000      0.352941176471      0.000000000000
      0.058823529412      0.352941176471      0.000000000000
      0.117647058824      0.352941176471      0.000000000000
      0.176470588235      0.352941176471      0.000000000000
      0.235294117647      0.352941176471      0.000000000000
      0.294117647059      0.352941176471      0.000000000000
      0.352941176471      0.352941176471      0.000000000000
      0.411764705882      0.352941176471      0.000000000000
      0.470588235294      0.352941176471      0.000000000000
     -0.470588235294      0.352941176471      0.000000000000
     -0.411764705882      0.352941176471      0.000000000000
     -0.352941176471      0.352941176471      0.000000000000
     -0.294117647059      0.352941176471      0.000000000000
     -0.235294117647      0.352941176471      0.000000000000
     -0.176470588235      0.352941176471      0.000000000000
     -0.117647058824      0.352941176471      0.000000000000
     -0.058823529412      0.352941176471      0.000000000000
      0.000000000000      0.411764705882      0.000000000000
      0.058823529412      0.411764705882      0.000000000000
      0.117647058824      0.411764705882      0.000000000000
      0.176470588235      0.411764705882      0.000000000000
      0.235294117647      0.411764705882      0.000000000000
      0.294117647059      0.411764705882      0.000000000000
      0.352941176471      0.411764705882      0.000000000000
      0.411764705882      0.411764705882      0.000000000000
      0.470588235294      0.411764705882      0.000000000000
     -0.470588235294      0.411764705882      0.000000000000
     -0.411764705882      0.411764705882      0.000000000000
     -0.352941176471      0.411764705882      0.000000000000
     -0.294117647059      0.411764705882      0.000000000000
     -0.235294117647      0.411764705882      0.000000000000
     -0.176470588235      0.411764705882      0.000000000000
     -0.117647058824      0.411764705882      0.000000000000
     -0.058823529412      0.411764705882      0.000000000000
      0.000000000000      0.470588235294      0.000000000000
      0.058823529412      0.470588235294      0.000000000000
      0.117647058824      0.470588235294      0.000000000000
      0.176470588235      0.470588235294      0.000000000000
      0.235294117647      0.470588235294      0.000000000000
      0.294117647059      0.470588235294      0.000000000000
      0.352941176471      0.470588235294      0.000000000000
      0.411764705882      0.470588235294      0.000000000000
      0.470588235294      0.470588235294      0.000000000000
     -0.470588235294      0.470588235294      0.000000000000
     -0.411764705882      0.470588235294      0.000000000000
     -0.352941176471      0.470588235294      0.000000000000
     -0.294117647059      0.470588235294      0.000000000000
     -0.235294117647      0.470588235294      0.000000000000
     -0.176470588235      0.470588235294      0.000000000000
     -0.117647058824      0.470588235294      0.000000000000
     -0.058823529412      0.470588235294      0.000000000000
     -0.058823529412     -0.000000000000      0.000000000000
     -0.117647058824     -0.000000000000      0.000000000000
     -0.176470588235      0.000000000000      0.000000000000
     -0.235294117647     -0.000000000000      0.000000000000
     -0.294117647059     -0.000000000000      0.000000000000
     -0.352941176471      0.000000000000      0.000000000000
     -0.411764705882      0.000000000000      0.000000000000
     -0.470588235294     -0.000000000000      0.000000000000
     -0.000000000000     -0.058823529412      0.000000000000
     -0.058823529412     -0.058823529412      0.000000000000
     -0.117647058824     -0.058823529412      0.000000000000
     -0.176470588235     -0.058823529412      0.000000000000
     -0.235294117647     -0.058823529412      0.000000000000
     -0.294117647059     -0.058823529412      0.000000000000
     -0.352941176471     -0.058823529412      0.000000000000
     -0.411764705882     -0.058823529412      0.000000000000
     -0.470588235294     -0.058823529412      0.000000000000
      0.470588235294     -0.058823529412      0.000000000000
      0.411764705882     -0.058823529412      0.000000000000
      0.352941176471     -0.058823529412      0.000000000000
      0.294117647059     -0.058823529412      0.000000000000
      0.235294117647     -0.058823529412      0.000000000000
      0.176470588235     -0.058823529412      0.000000000000
      0.117647058824     -0.058823529412      0.000000000000
      0.058823529412     -0.058823529412      0.000000000000
     -0.000000000000     -0.117647058824      0.000000000000
     -0.058823529412     -0.117647058824      0.000000000000
     -0.117647058824     -0.117647058824      0.000000000000
     -0.176470588235     -0.117647058824      0.000000000000
     -0.235294117647     -0.117647058824      0.000000000000
     -0.294117647059     -0.117647058824      0.000000000000
     -0.352941176471     -0.117647058824      0.000000000000
     -0.411764705882     -0.117647058824      0.000000000000
     -0.470588235294     -0.117647058824      0.000000000000
      0.470588235294     -0.117647058824      0.000000000000
      0.411764705882     -0.117647058824      0.000000000000
      0.352941176471     -0.117647058824      0.000000000000
      0.294117647059     -0.117647058824      0.000000000000
      0.235294117647     -0.117647058824      0.000000000000
      0.176470588235     -0.117647058824      0.000000000000
      0.117647058824     -0.117647058824      0.000000000000
      0.058823529412     -0.117647058824      0.000000000000
      0.000000000000     -0.176470588235      0.000000000000
     -0.058823529412     -0.176470588235      0.000000000000
     -0.117647058824     -0.176470588235      0.000000000000
     -0.176470588235     -0.176470588235      0.000000000000
     -0.235294117647     -0.176470588235      0.000000000000
     -0.294117647059     -0.176470588235      0.000000000000
     -0.352941176471     -0.176470588235      0.000000000000
     -0.411764705882     -0.176470588235      0.000000000000
     -0.470588235294     -0.176470588235      0.000000000000
      0.470588235294     -0.176470588235      0.000000000000
      0.411764705882     -0.176470588235      0.000000000000
      0.352941176471     -0.176470588235      0.000000000000
      0.294117647059     -0.176470588235      0.000000000000
      0.235294117647     -0.176470588235      0.000000000000
      0.176470588235     -0.176470588235      0.000000000000
      0.117647058824     -0.176470588235      0.000000000000
      0.058823529412     -0.176470588235      0.000000000000
     -0.000000000000     -0.235294117647      0.000000000000
     -0.058823529412     -0.235294117647      0.000000000000
     -0.117647058824     -0.235294117647      0.000000000000
     -0.176470588235     -0.235294117647      0.000000000000
     -0.235294117647     -0.235294117647      0.000000000000
     -0.294117647059     -0.235294117647      0.000000000000
     -0.352941176471     -0.235294117647      0.000000000000
     -0.411764705882     -0.235294117647      0.000000000000
     -0.470588235294     -0.235294117647      0.000000000000
      0.470588235294     -0.235294117647      0.000000000000
      0.411764705882     -0.235294117647      0.000000000000
      0.352941176471     -0.235294117647      0.000000000000
      0.294117647059     -0.235294117647      0.000000000000
      0.235294117647     -0.235294117647      0.000000000000
      0.176470588235     -0.235294117647      0.000000000000
      0.117647058824     -0.235294117647      0.000000000000
      0.058823529412     -0.235294117647      0.000000000000
     -0.000000000000     -0.294117647059      0.000000000000
     -0.058823529412     -0.294117647059      0.000000000000
     -0.117647058824     -0.294117647059      0.000000000000
     -0.176470588235     -0.294117647059      0.000000000000
     -0.235294117647     -0.294117647059      0.000000000000
     -0.294117647059     -0.294117647059      0.000000000000
     -0.352941176471     -0.294117647059      0.000000000000
     -0.411764705882     -0.294117647059      0.000000000000
     -0.470588235294     -0.294117647059      0.000000000000
      0.470588235294     -0.294117647059      0.000000000000
      0.411764705882     -0.294117647059      0.000000000000
      0.352941176471     -0.294117647059      0.000000000000
      0.294117647059     -0.294117647059      0.000000000000
      0.235294117647     -0.294117647059      0.000000000000
      0.176470588235     -0.294117647059      0.000000000000
      0.117647058824     -0.294117647059      0.000000000000
      0.058823529412     -0.294117647059      0.000000000000
      0.000000000000     -0.352941176471      0.000000000000
     -0.058823529412     -0.352941176471      0.000000000000
     -0.117647058824     -0.352941176471      0.000000000000
     -0.176470588235     -0.352941176471      0.000000000000
     -0.235294117647     -0.352941176471      0.000000000000
     -0.294117647059     -0.352941176471      0.000000000000
     -0.352941176471     -0.352941176471      0.000000000000
     -0.411764705882     -0.352941176471      0.000000000000
     -0.470588235294     -0.352941176471      0.000000000000
      0.470588235294     -0.352941176471      0.000000000000
      0.411764705882     -0.352941176471      0.000000000000
      0.352941176471     -0.352941176471      0.000000000000
      0.294117647059     -0.352941176471      0.000000000000
      0.235294117647     -0.352941176471      0.000000000000
      0.176470588235     -0.352941176471      0.000000000000
      0.117647058824     -0.352941176471      0.000000000000
      0.058823529412     -0.352941176471      0.000000000000
      0.000000000000     -0.411764705882      0.000000000000
     -0.058823529412     -0.411764705882      0.000000000000
     -0.117647058824     -0.411764705882      0.000000000000
     -0.176470588235     -0.411764705882      0.000000000000
     -0.235294117647     -0.411764705882      0.000000000000
     -0.294117647059     -0.411764705882      0.000000000000
     -0.352941176471     -0.411764705882      0.000000000000
     -0.411764705882     -0.411764705882      0.000000000000
     -0.470588235294     -0.411764705882      0.000000000000
      0.470588235294     -0.411764705882      0.000000000000
      0.411764705882     -0.411764705882      0.000000000000
      0.352941176471     -0.411764705882      0.000000000000
      0.294117647059     -0.411764705882      0.000000000000
      0.235294117647     -0.411764705882      0.000000000000
      0.176470588235     -0.411764705882      0.000000000000
      0.117647058824     -0.411764705882      0.000000000000
      0.058823529412     -0.411764705882      0.000000000000
     -0.000000000000     -0.470588235294      0.000000000000
     -0.058823529412     -0.470588235294      0.000000000000
     -0.117647058824     -0.470588235294      0.000000000000
     -0.176470588235     -0.470588235294      0.000000000000
     -0.235294117647     -0.470588235294      0.000000000000
     -0.294117647059     -0.470588235294      0.000000000000
     -0.352941176471     -0.470588235294      0.000000000000
     -0.411764705882     -0.470588235294      0.000000000000
     -0.470588235294     -0.470588235294      0.000000000000
      0.470588235294     -0.470588235294      0.000000000000
      0.411764705882     -0.470588235294      0.000000000000
      0.352941176471     -0.470588235294      0.000000000000
      0.294117647059     -0.470588235294      0.000000000000
      0.235294117647     -0.470588235294      0.000000000000
      0.176470588235     -0.470588235294      0.000000000000
      0.117647058824     -0.470588235294      0.000000000000
      0.058823529412     -0.470588235294      0.000000000000
end kpoints
