num_wann = 4  ! set to NBANDS by VASP
num_iter = 0
num_bands = 32

Begin Projections
C: pz
End Projections

dis_win_min=-23.05
dis_win_max=12.95
dis_froz_min=-5.55
dis_froz_max=-0.05

guiding_centres= true

write_hr = true

restart = plot
bands_plot = true
bands_num_points = 50
begin kpoint_path
G 0.0 0.0 0.0 X 0.5 0.0 0.0
X 0.5 0.0 0.0 M 0.5 0.5 0.0
M 0.5 0.5 0.0 G 0.0 0.0 0.0
end kpoint_path

begin unit_cell_cart
     4.2662204     0.0000000     0.0000000
     0.0000000     2.4651887     0.0000000
     0.0000000     0.0000000    20.0000000
end unit_cell_cart

begin atoms_cart
C        1.4221313     0.0000000    10.0000000
C        2.8440891     0.0000000    10.0000000
C        0.7109789     1.2325943    10.0000000
C        3.5552415     1.2325943    10.0000000
end atoms_cart

mp_grid =     4     8     1

begin kpoints
      0.000000000000      0.000000000000      0.000000000000
      0.250000000000      0.000000000000      0.000000000000
      0.500000000000      0.000000000000      0.000000000000
      0.000000000000      0.125000000000      0.000000000000
      0.250000000000      0.125000000000      0.000000000000
      0.500000000000      0.125000000000      0.000000000000
      0.000000000000      0.250000000000      0.000000000000
      0.250000000000      0.250000000000      0.000000000000
      0.500000000000      0.250000000000      0.000000000000
      0.000000000000      0.375000000000      0.000000000000
      0.250000000000      0.375000000000      0.000000000000
      0.500000000000      0.375000000000      0.000000000000
      0.000000000000      0.500000000000      0.000000000000
      0.250000000000      0.500000000000      0.000000000000
      0.500000000000      0.500000000000      0.000000000000
     -0.250000000000     -0.000000000000     -0.000000000000
     -0.000000000000     -0.125000000000     -0.000000000000
     -0.250000000000     -0.125000000000     -0.000000000000
      0.250000000000     -0.125000000000     -0.000000000000
     -0.250000000000      0.125000000000      0.000000000000
     -0.500000000000     -0.125000000000     -0.000000000000
     -0.000000000000     -0.250000000000     -0.000000000000
     -0.250000000000     -0.250000000000     -0.000000000000
      0.250000000000     -0.250000000000     -0.000000000000
     -0.250000000000      0.250000000000      0.000000000000
     -0.500000000000     -0.250000000000     -0.000000000000
     -0.000000000000     -0.375000000000     -0.000000000000
     -0.250000000000     -0.375000000000     -0.000000000000
      0.250000000000     -0.375000000000     -0.000000000000
     -0.250000000000      0.375000000000      0.000000000000
     -0.500000000000     -0.375000000000     -0.000000000000
     -0.250000000000     -0.500000000000     -0.000000000000
end kpoints
