Bi In Se                                
   1.00000000000000     
     2.1017795382226767   -3.6403929621873008    0.0000000000000000
     2.1017795382226767    3.6403929621873008    0.0000000000000000
     0.0000000000000000    0.0000000000000000   15.0000000000000000
   Bi
     2
Selective dynamics
Direct
  0.3333333333333357  0.6666666666666643  0.7178749092649126   T   T   T
  0.6666666666666643  0.3333333333333357  0.6024530515954127   T   T   T
 
  0.00000000E+00  0.00000000E+00  0.00000000E+00
  0.00000000E+00  0.00000000E+00  0.00000000E+00
