SYSTEM = C
 Startparameter for this Run:
  NWRITE =      1;   LPETIM=F    write-flag & time
  ISTART =      0    job   : 0-new  1-cont  2-samecu
  LWAVE = F
 LCHARG = F
# LAECHG=T
# ISPIN=2
ICHARG=11
#SYMPREC=0.0001
#LELF = F

# LPLANE = .TRUE.
# NCORE   = 4
# LSCALU = .FALSE.
# NSIM   =  24

# LHFCALC = .TRUE. ; HFSCREEN = 0.2
# NBANDS = 18
# ALGO = All ; TIME = 0.4
# PRECFOCK  = N  ! used PRECFOCK = Normal for high quality calculations
# NKRED     = 2     ! omit flag for high quality calculations
# LASPH=T

#Electric Field parameters:
#EFIELD = 0.1
#LDIPOL = .TRUE.
#IDIPOL = 3

#GGA=PS
#ADDGRID = .TRUE.
# IVDW=12

#LDAU=T
#LDAUU=2.5 0   0
#LDAUJ=0   0   0

# ISYM=0
# LSORBIT = .TRUE.
# ICHARG = 11      ! non selfconsistent run, read CHGCAR
# LMAXMIX = 4      ! for d elements increase LMAXMIX to 4, f: LMAXMIX = 6
#  ! you need to set LMAXMIX already in the collinear calculation
# SAXIS =  1  1  1   ! direction of the magnetic field
# MAGMOM = 54*0
# NBANDS = 54
# GGA_COMPAT=.FALSE.

Electronic Relaxation 1

 NELM   =    2000
 NELMIN =   5
#  NELMDL=-10
 EDIFFG = -0.01
 EDIFF  = 1E-6
 PREC   =  A
   NBANDS = 16
# ISIF=3

Ionic Relaxation
 NSW    = 0   for static cal/.
 NBLOCK =     1 ;   KBLOCK =      5    inner block; outer block
 IBRION =    -1  ionic relax: 0-MD 1-quasi-New 2-CG
 POTIM  =  0.5
 LCORR  =      T    Harris-correction to forces
 ENCUT  = 400

DOS related values:
 ISMEAR = 0
 SIGMA = 0.01
  EMIN=-15
  EMAX=5
  LORBIT=11
   NEDOS=3000

Electronic Relaxation 2

 ALGO  =     N ! Normal     algorithm
 LDIAG  =      T    sub-space diagonalisation
 LREAL = F
