K-point
30
Line-mode
rec
0	0	0	!G
0.5	0	0	!X

0.5     0       0       !X
0.33333	0.33333	0	!M

0.33333 0.33333 0       !M
0	0	0	!G
