Te                                      
   1.0000000000000000     
     2.2593203048666011   -3.9132575586008183   -0.0000000000000000
     2.2593203048666011    3.9132575586008183    0.0000000000000000
    -0.0000000000000000    0.0000000000000000    5.9531966809293655
   Te
     3
Selective dynamics
Direct
  0.2686237599976238  0.0000000000000000  0.1666666666669983   T   T   T
  0.0000000000000000  0.2686237599976238  0.8333333333330017   T   T   T
  0.7313762400023762  0.7313762400023762  0.5000000000000000   T   T   T

  0.00000000E+00  0.00000000E+00  0.00000000E+00
  0.00000000E+00  0.00000000E+00  0.00000000E+00
  0.00000000E+00  0.00000000E+00  0.00000000E+00
