In Se                                   
   1.00000000000000     
     4.1028399000000002    0.0000000000000000    0.0000000000000000
     2.0514199500000001    3.5531635810600002    0.0000000000000000
     0.0000000000000000    0.0000000000000001   28.7429748668999991
   In   Se
     2     3
Selective dynamics
Direct
  0.8333320883792266  0.8333320958786637  0.5718640090064865   T   T   T
  0.4999961739065981  0.4999961661310119  0.4247198580507978   T   T   T
  0.1666629534250666  0.1666629446166729  0.3813807453950200   T   T   T
  0.1666658355827419  0.1666658426400628  0.6178038003851362   T   T   T
  0.4999979487063657  0.4999979507335873  0.5133615871625657   T   T   T
 
  0.00000000E+00  0.00000000E+00  0.00000000E+00
  0.00000000E+00  0.00000000E+00  0.00000000E+00
  0.00000000E+00  0.00000000E+00  0.00000000E+00
  0.00000000E+00  0.00000000E+00  0.00000000E+00
  0.00000000E+00  0.00000000E+00  0.00000000E+00
