Bi In Se                                
   1.00000000000000     
     2.1672033571621330   -3.7537107367202918    0.0000000000000000
     2.1672033571621330    3.7537107367202918    0.0000000000000000
     0.0000000000000000    0.0000000000000000   15.0000000000000000
   Bi
     2
Selective dynamics
Direct
  0.3333333333333357  0.6666666666666643  0.7180252062747047   T   T   T
  0.6666666666666643  0.3333333333333357  0.6023027545856207   T   T   T
 
  0.00000000E+00  0.00000000E+00  0.00000000E+00
  0.00000000E+00  0.00000000E+00  0.00000000E+00
