K-points along the directions K1-Gamma, Gamma-M1, M1-K1
 25 15 30
Line-mode 0.000000000
Reciprocal
   0.000000000  0.000000000  0.000000000    1 ! Gamma   
   0.500000000  0.000000000  0.000000000    1 ! X

   0.500000000  0.000000000  0.000000000    1 ! X
   0.333333333  0.333333333  0.000000000    1 ! K

   0.333333333  0.333333333  0.000000000    1 ! K
   0.000000000  0.000000000  0.000000000    1 ! Gamma
