c4                                      
   1.0000000000000000     
     2.4641382786109620    0.0000000000000000    0.0000000000000000
    -1.2320691393054810    2.1340063477679254    0.0000000000000000
     0.0000000000000000    0.0000000000000000   15.0000000000000000
   C 
     2
Direct
  0.0000000000000000  0.0000000000000000  0.1447506268666672
  0.6666669848308473  0.3333330035891677  0.1447506268666672

  0.00000000E+00  0.00000000E+00  0.00000000E+00
  0.00000000E+00  0.00000000E+00  0.00000000E+00
